13	16	16	17	10	2	20	1	10	6	18	13	16	19	18	16	15	19	17	18	6	11	19	3	8	1	20	3	4	5	12	20	2	12	6	20	15	18	18	14	19	20	20	12	14	18	16	20	20	3
12	16	5	9	9	16	8	16	2	9	19	11	14	16	3	3	10	19	2	3	18	15	8	18	18	5	17	2	4	14	2	18	1	20	17	17	1	2	18	15	2	6	16	16	10	18	9	14	8	10
20	6	10	17	14	3	12	7	16	9	8	2	14	16	4	19	5	3	18	16	1	15	1	14	2	7	8	14	20	18	16	15	12	4	13	8	16	15	6	18	13	5	18	4	9	11	19	13	16	3
3	20	10	12	4	16	1	15	15	3	11	2	7	11	11	5	4	3	16	20	5	5	15	4	4	8	13	2	8	16	7	7	9	3	4	4	15	15	17	6	7	4	15	10	5	2	16	19	15	14
